$molecule
0 1
  C   -7.8827478   -3.6332468    1.6494854
  C   -7.7992348   -2.1176593    1.4770857
  N   -6.6578879   -1.6734560    2.1421281
  O   -8.5956518   -1.3649460    0.9021617
  C   -5.8956568   -2.7351513    2.7950659
  C   -6.5134672   -0.2240960    2.4095118
  C   -6.4983486   -4.0305245    2.1912529
  C   -4.3736082   -2.6723929    2.4796511
  O   -5.9226457   -2.6371660    4.2470022
  H   -5.8428081   -4.3349721    1.3736113
  H   -6.5283745   -4.8084579    2.9544890
  H   -8.6813557   -3.8432406    2.3704937
  H   -8.1296422   -4.1158213    0.7023956
  C   -5.0737620    0.2173909    2.0913202
  O   -4.4628622   -0.2550324    1.1095536
  N   -4.5371083    1.1614536    2.9066511
  C   -7.0484582    0.1541965    3.8035846
  H   -5.0421875    1.5110158    3.7135687
  C   -3.1494082    1.6022536    2.7032548
  C   -2.2271717    0.8187564    3.6544901
  O   -0.8044000    1.2102300    3.4294606
  C   -0.2066937    0.7009410    2.3105075
  C    1.2122929    1.2001910    2.1686168
  O   -0.7744415   -0.0350558    1.5013054
  C    2.1295552    0.0918682    1.6057004
  C    1.6025931   -0.3229726    0.2312358
  O    2.1540124   -1.0835886    2.4330533
  C    3.5468519    0.7060918    1.4006809
  C    4.5029552   -0.2477114    0.7018855
  O    5.4151303   -0.8605003    1.2430247
  O    4.2804456   -0.4036962   -0.6487234
  H   -3.0640870    2.6770582    2.8736272
  H   -2.8834756    1.3511488    1.6763158
  H   -2.3544203   -0.2511311    3.4851034
  H   -2.4116878    1.0738728    4.6977195
  H    1.5845025    1.5484760    3.1336380
  H    3.9600083    0.9437432    2.3828636
  H    3.4471341    1.6231585    0.8150446
  O   -3.6534636   -2.1288298    3.5054834
  O   -3.8600675   -3.1137193    1.4634290
  H   -7.1600338    0.2331528    1.6492179
  H   -6.8531058   -2.7099504    4.5892908
  H   -6.4265591   -0.2827483    4.5854868
  H   -8.0664453   -0.2338079    3.9043649
  H   -7.0950890    1.2421586    3.9174703
  H    3.5193101    0.1605783   -0.9746492
  H   -4.2957996   -2.0396807    4.2840157
  O    1.6290101    0.4610697   -0.7296197
  O    1.2235235   -1.6103614    0.1476893
  H    1.2078325    2.0386236    1.4625846
  H    2.5297446   -0.8237323    3.3183574
  H    0.9082432   -1.8149451   -0.7794639
$end

$rem
   BASIS  =  cc-pVDZ
   DFT_D  =  D3_BJ
   GUI  =  2
   JOB_TYPE  =  Optimization
   MEM_TOTAL  =  30000
   METHOD  =  B3LYP
   SCF_CONVERGENCE  =  8
   SCF_MAX_CYCLES  =  200
   SOLVENT_METHOD  =  PCM
$end

$geom_opt
   MAXITER  200
$end

$pcm
   THEORY  CPCM
$end

$solvent
   DIELECTRIC  78.39
$end


