$molecule
0 1
  C   -8.4999320   -2.8888241    1.5674169
  C   -7.9721933   -1.4973532    1.9196871
  N   -6.8193230   -1.6778568    2.6744722
  O   -8.4659933   -0.3923390    1.6599699
  C   -6.4801807   -3.0972543    2.8968587
  C   -6.1585985   -0.5311628    3.3085028
  O   -5.0744955   -3.3739462    2.9045526
  C   -7.0056647   -3.5652367    4.2813094
  H   -9.2640157   -3.1444921    2.3094348
  H   -8.9274959   -2.9088461    0.5648990
  C   -4.7981015   -0.2591329    2.6510050
  N   -4.4074929    1.0224375    2.6175061
  C   -5.9785686   -0.7169596    4.8333274
  C   -3.0951622    1.4003949    2.0602608
  C   -1.9858669    1.0408129    3.0612024
  O   -0.6758419    1.5536378    2.5473321
  C   -0.0443020    0.8209274    1.6133612
  C    1.2601736    1.4435875    1.1731218
  O   -0.5261694   -0.2421784    1.1654896
  C    2.4260467    0.4140316    1.1808393
  C    2.4011291   -0.4763413   -0.0918226
  O    2.2504221   -0.5553120    2.2636130
  C    3.7743481    1.1558581    1.2953289
  C    4.8886442    0.2394822    1.8160342
  O    5.3803435    0.3574985    2.9382602
  O    5.3210001   -0.7110906    0.9525790
  H   -3.0985993    2.4726553    1.8659265
  H   -2.9303312    0.8479150    1.1331437
  H   -1.9249807   -0.0408194    3.1765913
  H   -2.1163619    1.5492646    4.0138703
  H    1.4861031    2.2538664    1.8667342
  H    3.6743527    1.9599943    2.0258841
  H    4.0455088    1.5771213    0.3235553
  H   -6.8207886    0.3162901    3.1054039
  H   -5.4043508   -1.6220769    5.0420557
  H   -6.9626448   -0.8045919    5.3025038
  H   -5.4550899    0.1470748    5.2513620
  H    4.7302477   -0.7129424    0.1110571
  O    3.4257150   -0.6699526   -0.7796736
  O    1.2565055   -1.0539768   -0.4208372
  H    1.1341924    1.8689726    0.1697814
  H    2.4042660   -0.0774796    3.1268096
  O   -4.0461358   -1.1774598    2.2003195
  H   -5.0131489    1.7578792    2.9741384
  O   -8.1809439   -3.5047956    4.6328073
  O   -5.9969234   -4.0592478    5.0437063
  H   -4.5517486   -2.5394509    2.5277982
  H   -5.1780502   -3.9589178    4.4155305
  C   -7.2683884   -3.7935591    1.7589541
  H    0.4448189   -0.8259419    0.2150459
  H   -6.6295888   -3.7703524    0.8712925
  H   -7.5161409   -4.8258744    2.0086578
$end

$rem
   BASIS  =  cc-pVDZ
   DFT_D  =  D3_BJ
   GUI  =  2
   JOB_TYPE  =  Optimization
   MEM_TOTAL  =  30000
   METHOD  =  B3LYP
   SCF_CONVERGENCE  =  8
   SCF_MAX_CYCLES  =  200
   SOLVENT_METHOD  =  PCM
$end

$geom_opt
   MAXITER  200
$end

$pcm
   THEORY  CPCM
$end

$solvent
   DIELECTRIC  78.39
$end


