$molecule
0 1
  C   -8.6120749   -2.7939888    1.2872270
  C   -8.1519503   -1.4762714    1.9087818
  N   -6.9668695   -1.7291151    2.6132142
  O   -8.6897329   -0.3689335    1.8499306
  C   -6.5050030   -3.0466369    2.5013237
  C   -6.2423298   -0.6523506    3.2926861
  C   -7.4815288   -3.7973942    1.5902545
  O   -5.5053073   -3.4955482    3.0635566
  H   -6.9456736   -4.0975033    0.6842253
  H   -7.8305779   -4.6980331    2.1004865
  H   -9.5591802   -3.0861392    1.7520865
  H   -8.7839169   -2.6490201    0.2179511
  C   -4.9569935   -0.3442850    2.4947766
  O   -4.5899340   -1.0111394    1.5067708
  N   -4.2558260    0.7251843    2.9559991
  C   -5.9338596   -1.0093802    4.7641189
  H   -4.5796931    1.2616713    3.7546263
  C   -3.0229202    1.1468684    2.2731232
  C   -1.8830579    0.1689302    2.5968442
  O   -0.6096865    0.6747156    2.0097240
  C   -0.3979828    0.4246903    0.6521388
  C    0.9592430    0.9505972    0.2310776
  O   -1.2496390   -0.0923203   -0.0544590
  C    2.0665725    0.7701830    1.2837666
  C    2.2404027   -0.7080642    1.6633097
  O    1.8035737    1.5221752    2.4987440
  C    3.4124391    1.3091283    0.7394464
  C    4.3352823    1.8300966    1.8499791
  O    4.8209024    2.9607343    1.8193240
  O    4.6478284    0.9685525    2.8465629
  H   -2.7635506    2.1528215    2.6048799
  H   -3.1869880    1.1377668    1.1931394
  H   -2.1104936   -0.8067556    2.1675945
  H   -1.6931048    0.1085141    3.6668346
  H    0.8588842    2.0289924    0.0570947
  H    3.2127338    2.1631773    0.0909060
  H    3.9278538    0.5378626    0.1559383
  H   -6.9036384    0.2186663    3.2376622
  H   -5.3020920   -1.8974448    4.7906273
  H   -6.8700028   -1.2149270    5.2913602
  H   -5.4290687   -0.1778709    5.2621946
  H    4.1218454    0.0915656    2.7790322
  O    3.1357688   -1.1176283    2.4204843
  O    1.3169790   -1.5265060    1.1216551
  H    1.2317840    0.4656600   -0.7068144
  H    0.8282573    1.3556452    2.6959367
  H    1.4382221   -2.4761662    1.4137668
$end

$rem
   BASIS  =  cc-pVDZ
   DFT_D  =  D3_BJ
   GUI  =  2
   JOB_TYPE  =  Optimization
   MEM_TOTAL  =  30000
   METHOD  =  B3LYP
   SCF_CONVERGENCE  =  8
   SCF_MAX_CYCLES  =  200
   SOLVENT_METHOD  =  PCM
$end

$geom_opt
   MAXITER  200
$end

$pcm
   THEORY  CPCM
$end

$solvent
   DIELECTRIC  78.39
$end


